100 100 100
50
5 1 35
91 67 43
48 46 24
69 20 85
33 37 37
79 38 88
8 98 93
6 35 13
7 25 17
13 45 10
6 28 22
41 27 47
78 79 43
17 30 34
3 20 9
46 16 33
23 26 4
48 44 24
46 31 34
45 45 32
39 16 28
4 91 73
76 35 86
77 50 70
70 93 56
96 69 41
20 41 2
23 84 80
45 29 23
27 74 96
92 73 13
97 31 69
9 33 16
87 88 28
41 77 69
76 74 54
16 74 81
11 41 43
37 2 12
68 100 20
28 34 25
16 81 97
18 8 3
76 5 72
29 34 13
27 17 16
40 38 23
33 66 91
8 33 23
1 84 70
